c generated by sgen
p cnf 121 252
-2 -3 -4 0
-1 -3 -4 0
-1 -2 -4 0
-1 -2 -3 0
-6 -7 -8 0
-5 -7 -8 0
-5 -6 -8 0
-5 -6 -7 0
-10 -11 -12 0
-9 -11 -12 0
-9 -10 -12 0
-9 -10 -11 0
-14 -15 -16 0
-13 -15 -16 0
-13 -14 -16 0
-13 -14 -15 0
-18 -19 -20 0
-17 -19 -20 0
-17 -18 -20 0
-17 -18 -19 0
-22 -23 -24 0
-21 -23 -24 0
-21 -22 -24 0
-21 -22 -23 0
-26 -27 -28 0
-25 -27 -28 0
-25 -26 -28 0
-25 -26 -27 0
-30 -31 -32 0
-29 -31 -32 0
-29 -30 -32 0
-29 -30 -31 0
-34 -35 -36 0
-33 -35 -36 0
-33 -34 -36 0
-33 -34 -35 0
-38 -39 -40 0
-37 -39 -40 0
-37 -38 -40 0
-37 -38 -39 0
-42 -43 -44 0
-41 -43 -44 0
-41 -42 -44 0
-41 -42 -43 0
-46 -47 -48 0
-45 -47 -48 0
-45 -46 -48 0
-45 -46 -47 0
-50 -51 -52 0
-49 -51 -52 0
-49 -50 -52 0
-49 -50 -51 0
-54 -55 -56 0
-53 -55 -56 0
-53 -54 -56 0
-53 -54 -55 0
-58 -59 -60 0
-57 -59 -60 0
-57 -58 -60 0
-57 -58 -59 0
-62 -63 -64 0
-61 -63 -64 0
-61 -62 -64 0
-61 -62 -63 0
-66 -67 -68 0
-65 -67 -68 0
-65 -66 -68 0
-65 -66 -67 0
-70 -71 -72 0
-69 -71 -72 0
-69 -70 -72 0
-69 -70 -71 0
-74 -75 -76 0
-73 -75 -76 0
-73 -74 -76 0
-73 -74 -75 0
-78 -79 -80 0
-77 -79 -80 0
-77 -78 -80 0
-77 -78 -79 0
-82 -83 -84 0
-81 -83 -84 0
-81 -82 -84 0
-81 -82 -83 0
-86 -87 -88 0
-85 -87 -88 0
-85 -86 -88 0
-85 -86 -87 0
-90 -91 -92 0
-89 -91 -92 0
-89 -90 -92 0
-89 -90 -91 0
-94 -95 -96 0
-93 -95 -96 0
-93 -94 -96 0
-93 -94 -95 0
-98 -99 -100 0
-97 -99 -100 0
-97 -98 -100 0
-97 -98 -99 0
-102 -103 -104 0
-101 -103 -104 0
-101 -102 -104 0
-101 -102 -103 0
-106 -107 -108 0
-105 -107 -108 0
-105 -106 -108 0
-105 -106 -107 0
-110 -111 -112 0
-109 -111 -112 0
-109 -110 -112 0
-109 -110 -111 0
-114 -115 -116 0
-113 -115 -116 0
-113 -114 -116 0
-113 -114 -115 0
-117 -118 -119 0
-117 -118 -120 0
-117 -118 -121 0
-117 -119 -120 0
-117 -119 -121 0
-117 -120 -121 0
-118 -119 -120 0
-118 -119 -121 0
-118 -120 -121 0
-119 -120 -121 0
85 13 92 0
50 13 92 0
50 85 92 0
50 85 13 0
32 77 98 0
35 77 98 0
35 32 98 0
35 32 77 0
106 40 3 0
90 40 3 0
90 106 3 0
90 106 40 0
61 102 29 0
16 102 29 0
16 61 29 0
16 61 102 0
80 6 51 0
107 6 51 0
107 80 51 0
107 80 6 0
76 95 101 0
33 95 101 0
33 76 101 0
33 76 95 0
78 70 83 0
113 70 83 0
113 78 83 0
113 78 70 0
72 75 60 0
53 75 60 0
53 72 60 0
53 72 75 0
52 1 17 0
43 1 17 0
43 52 17 0
43 52 1 0
112 94 12 0
116 94 12 0
116 112 12 0
116 112 94 0
67 28 71 0
36 28 71 0
36 67 71 0
36 67 28 0
104 110 46 0
118 110 46 0
118 104 46 0
118 104 110 0
41 69 14 0
24 69 14 0
24 41 14 0
24 41 69 0
66 121 37 0
114 121 37 0
114 66 37 0
114 66 121 0
64 55 47 0
82 55 47 0
82 64 47 0
82 64 55 0
39 88 79 0
74 88 79 0
74 39 79 0
74 39 88 0
2 22 93 0
58 22 93 0
58 2 93 0
58 2 22 0
73 89 19 0
120 89 19 0
120 73 19 0
120 73 89 0
68 105 111 0
31 105 111 0
31 68 111 0
31 68 105 0
7 38 103 0
54 38 103 0
54 7 103 0
54 7 38 0
59 25 49 0
62 25 49 0
62 59 49 0
62 59 25 0
9 48 30 0
44 48 30 0
44 9 30 0
44 9 48 0
42 91 84 0
57 91 84 0
57 42 84 0
57 42 91 0
86 56 10 0
108 56 10 0
108 86 10 0
108 86 56 0
8 23 109 0
27 23 109 0
27 8 109 0
27 8 23 0
117 4 87 0
5 4 87 0
5 117 87 0
5 117 4 0
96 65 100 0
45 65 100 0
45 96 100 0
45 96 65 0
97 26 115 0
18 26 115 0
18 97 115 0
18 97 26 0
99 119 21 0
63 119 21 0
63 99 21 0
63 99 119 0
11 81 34 0
11 81 20 0
11 81 15 0
11 34 20 0
11 34 15 0
11 20 15 0
81 34 20 0
81 34 15 0
81 20 15 0
34 20 15 0
